
Gurobi 11.0.3 (linux64) logging started Wed Nov 12 20:15:20 2025

Set parameter LogFile to value "./log/train/CA_500_600_threads_0/CA_56.lp.log"
Set parameter TimeLimit to value 3600
Gurobi Optimizer version 11.0.3 build v11.0.3rc0 (linux64 - "Ubuntu 22.04.5 LTS")

CPU model: AMD Ryzen 9 9900X 12-Core Processor, instruction set [SSE2|AVX|AVX2|AVX512]
Thread count: 12 physical cores, 24 logical processors, using up to 24 threads

Optimize a model with 600 rows, 600 columns and 3147 nonzeros
Model fingerprint: 0xcd8b652e
Variable types: 0 continuous, 600 integer (600 binary)
Coefficient statistics:
  Matrix range     [1e+00, 1e+00]
  Objective range  [4e+00, 1e+03]
  Bounds range     [1e+00, 1e+00]
  RHS range        [1e+00, 1e+00]
Found heuristic solution: objective 20597.272892
Presolve removed 37 rows and 65 columns
Presolve time: 0.01s
Presolved: 563 rows, 535 columns, 3078 nonzeros
Found heuristic solution: objective 22586.393935
Variable types: 0 continuous, 535 integer (535 binary)
Found heuristic solution: objective 22636.511332

Root relaxation: objective 2.987508e+04, 1438 iterations, 0.04 seconds (0.09 work units)

    Nodes    |    Current Node    |     Objective Bounds      |     Work
 Expl Unexpl |  Obj  Depth IntInf | Incumbent    BestBd   Gap | It/Node Time

     0     0 29875.0778    0  315 22636.5113 29875.0778  32.0%     -    0s
H    0     0                    25424.086191 29875.0778  17.5%     -    0s
H    0     0                    25444.268863 29875.0778  17.4%     -    0s
     0     0 29813.0050    0  328 25444.2689 29813.0050  17.2%     -    0s
H    0     0                    25920.614100 29702.8972  14.6%     -    0s
     0     0 29702.8972    0  326 25920.6141 29702.8972  14.6%     -    0s
     0     0 29702.8972    0  327 25920.6141 29702.8972  14.6%     -    0s
     0     0 29647.2824    0  323 25920.6141 29647.2824  14.4%     -    0s
     0     0 29647.2824    0  323 25920.6141 29647.2824  14.4%     -    0s
     0     2 29647.2824    0  323 25920.6141 29647.2824  14.4%     -    0s
H   27    40                    25930.907648 29580.9834  14.1%   295    0s
H   35    40                    26013.441352 29580.7906  13.7%   255    0s
H   64    82                    26023.734900 29580.7906  13.7%   204    0s
H   71    82                    26058.212044 29580.7906  13.5%   201    0s
H   75    82                    26668.976177 29580.7906  10.9%   204    0s
H   86   101                    26986.320816 29580.7906  9.61%   203    0s
H   98   101                    27027.817198 29580.7906  9.45%   195    0s
H  145   130                    27198.916312 29580.7906  8.76%   171    0s
* 1747   845              31    27316.924251 28565.7543  4.57%   122    1s
 11844  2602 27417.7418   42  245 27316.9243 28027.0200  2.60%   109    5s

Cutting planes:
  Gomory: 1
  Clique: 20
  Zero half: 3

Explored 32581 nodes (3022886 simplex iterations) in 7.85 seconds (21.46 work units)
Thread count was 24 (of 24 available processors)

Solution count 10: 27316.9 27198.9 27027.8 ... 25920.6

Optimal solution found (tolerance 1.00e-04)
Best objective 2.731692425102e+04, best bound 2.731692425102e+04, gap 0.0000%

User-callback calls 66814, time in user-callback 0.04 sec
